SCIP version 5.0.0 [precision: 8 byte] [memory: block] [mode: optimized] [LP solver: NONE] [GitHash: 3bbd232]
Copyright (C) 2002-2017 Konrad-Zuse-Zentrum fuer Informationstechnik Berlin (ZIB)

External codes: 
  Readline EditLine w  GNU library for command line editing (gnu.org/s/readline)
  CppAD 20160000.1     Algorithmic Differentiation of C++ algorithms developed by B. Bell (www.coin-or.org/CppAD)
  ZLIB 1.2.5           General purpose compression library by J. Gailly and M. Adler (zlib.net)
  GMP 6.1.2            GNU Multiple Precision Arithmetic Library developed by T. Granlund (gmplib.org)

user parameter file <scip.set> not found - using default parameters

read problem <../../Split_data/output/breast/4/3_sample_breast.logreg>
============

File name	:	../../Split_data/output/breast/4/3_sample_breast.logreg
Problem name 	:	3_sample_breast
Number of data	:	155
Number of var	:	33
The given data has linear independence

[dim=1] time: 0.003887
[dim=2] time: 0.007992
[dim=3] time: 0.01217
[dim=4] time: 0.016275
[dim=5] time: 0.020177
[dim=6] time: 0.024144
[dim=7] time: 0.02769
[dim=8] time: 0.030848
[dim=9] time: 0.034123
[dim=10] time: 0.037072
[dim=11] time: 0.039805
[dim=12] time: 0.042394
[dim=13] time: 0.044902
[dim=14] time: 0.049131
[dim=15] Time of forward = 0.055113sec.
AIC: 122.794
k: 14

[dim=33] time: 0.015217
[dim=32] time: 0.024007
[dim=31] time: 0.034759
[dim=30] time: 0.047311
[dim=29] time: 0.060226
[dim=28] time: 0.076952
[dim=27] time: 0.08394
[dim=26] time: 0.090297
[dim=25] time: 0.097922
[dim=24] time: 0.104894
[dim=23] time: 0.110961
[dim=22] time: 0.117713
[dim=21] time: 0.123001
[dim=20] time: 0.127915
[dim=19] time: 0.135845
[dim=18] Time of backward = 0.144799sec.
AIC: 113.708
k: 19
